&GLOBAL
  EPS_CHECK_DIAG 1.0E-12
  PRINT_LEVEL LOW
  PROJECT Al111
  RUN_TYPE ENERGY
&END GLOBAL

&MOTION
  &GEO_OPT
    MAX_ITER 200
    OPTIMIZER BFGS
  &END GEO_OPT
&END MOTION

&FORCE_EVAL
  METHOD QS
  &DFT
    BASIS_SET_FILE_NAME BASIS_MOLOPT
    POTENTIAL_FILE_NAME POTENTIAL
    &MGRID
      CUTOFF 400
      REL_CUTOFF 50
    &END MGRID
    &QS
      EPS_DEFAULT 1.0E-12
      EXTRAPOLATION_ORDER 3
      WF_INTERPOLATION PS
    &END QS
    &SCF
      SCF_GUESS ATOMIC
      EPS_SCF 1.0E-6
      MAX_SCF 300
      &OT ON
        MINIMIZER DIIS
      &END OT
      &OUTER_SCF ON
        EPS_SCF 1.0E-6
        MAX_SCF 10
      &END OUTER_SCF
      &PRINT
        &RESTART OFF
        &END RESTART
      &END PRINT
    &END SCF
    &XC
      &XC_FUNCTIONAL PBE
      &END XC_FUNCTIONAL
    &END XC
  &END DFT
  &SUBSYS
    &CELL
      A 5.6648228934 0.0000000000 0.0000000000
      B 2.8324114427 4.9058806315 0.0000000000
      C 0.0000000000 0.0000000000 20.000000000
      PERIODIC XYZ
    &END CELL
    &COORD
      Al       0.00000003      -0.00000002       9.97439563
      Al       2.83241147      -0.00000002       9.97439564
      Al       1.41620575       2.45294030       9.97439563
      Al       4.24861720       2.45294029       9.97439564
      Al       1.41620576       0.81764675      12.30667723
      Al       4.24861721       0.81764675      12.30667724
      Al       2.83241148       3.27058707      12.30667723
      Al       5.66482293       3.27058706      12.30667724
      Al      -0.00000064       1.63529358      14.62549679
      Al       2.83241138       1.63529407      14.62549447
      Al       1.41620610       4.08823222      14.62549751
      Al       4.24861678       4.08823275      14.62549431
      Al      -0.00000442      -0.00000238      16.95956742
      Al       2.83241607      -0.00000039      16.95956772
      Al       1.41620439       2.45294219      16.95956699
      Al       4.24861924       2.45294231      16.95956659
    &END COORD
    &KIND Al
      BASIS_SET DZVP-MOLOPT-SR-GTH
      POTENTIAL GTH-PBE-q3
    &END KIND
  &END SUBSYS
&END FORCE_EVAL