&GLOBAL
  PROJECT Al111_active_space
  PRINT_LEVEL MEDIUM
  RUN_TYPE ENERGY
&END GLOBAL

&FORCE_EVAL
  METHOD QUICKSTEP
  &DFT
    BASIS_SET_FILE_NAME BASIS_MOLOPT
    POTENTIAL_FILE_NAME POTENTIAL
    &QS
      METHOD GPW
      EPS_DEFAULT 1.0E-10
      EXTRAPOLATION ASPC
      EXTRAPOLATION_ORDER 3
    &END QS
    &POISSON
      PERIODIC XYZ
    &END POISSON
    &MGRID
      CUTOFF 400
      REL_CUTOFF 50
      NGRIDS 5
    &END MGRID
    &SCF
      SCF_GUESS ATOMIC
      EPS_SCF 1.0E-6
      MAX_SCF 200
      ADDED_MOS 20
      &DIAGONALIZATION
        ALGORITHM STANDARD
      &END DIAGONALIZATION
      &MIXING
        METHOD BROYDEN_MIXING
        ALPHA 0.1
        NBROYDEN 8
      &END MIXING
      &SMEAR
        METHOD FERMI_DIRAC
        ELECTRONIC_TEMPERATURE [K] 300
      &END SMEAR
      &PRINT
        &RESTART OFF
        &END
      &END PRINT
      IGNORE_CONVERGENCE_FAILURE
    &END SCF
    &XC
      &XC_FUNCTIONAL PBE
      &END XC_FUNCTIONAL
    &END XC
    &PRINT
      &MO
        ENERGIES TRUE
        OCCUPATION_NUMBERS TRUE
        &EACH
          QS_SCF 0
        &END
      &END
      ! Removed PDOS section
    &END PRINT
    &ACTIVE_SPACE
      ACTIVE_ELECTRONS 2
      ACTIVE_ORBITALS 5
      SCF_EMBEDDING TRUE
      EPS_ITER 1E-6
      AS_SOLVER QISKIT
      ORBITAL_SELECTION MANUAL
      ACTIVE_ORBITAL_INDICES 45 46 47 48 49
      &ERI
        METHOD FULL_GPW
        PERIODICITY 1 1 1
        OPERATOR <1/r>
      &END ERI
      &ERI_GPW
        CUTOFF 400
        REL_CUTOFF 50
      &END ERI_GPW
      &FCIDUMP ON
      &END FCIDUMP
    &END ACTIVE_SPACE
  &END DFT
  &SUBSYS
    &CELL
      A 5.6648228934 0.0000000000 0.0000000000
      B 2.8324114427 4.9058806315 0.0000000000
      C 0.0000000000 0.0000000000 20.0000000000
      PERIODIC XYZ
    &END CELL
    &COORD
      Al       0.00000003      -0.00000002       9.97439563
      Al       2.83241147      -0.00000002       9.97439564
      Al       1.41620575       2.45294030       9.97439563
      Al       4.24861720       2.45294029       9.97439564
      Al       1.41620576       0.81764675      12.30667723
      Al       4.24861721       0.81764675      12.30667724
      Al       2.83241148       3.27058707      12.30667723
      Al       5.66482293       3.27058706      12.30667724
      Al      -0.00000064       1.63529358      14.62549679
      Al       2.83241138       1.63529407      14.62549447
      Al       1.41620610       4.08823222      14.62549751
      Al       4.24861678       4.08823275      14.62549431
      Al      -0.00000442      -0.00000238      16.95956742
      Al       2.83241607      -0.00000039      16.95956772
      Al       1.41620439       2.45294219      16.95956699
      Al       4.24861924       2.45294231      16.95956659
    &END COORD
    &KIND Al
      BASIS_SET DZVP-MOLOPT-SR-GTH
      POTENTIAL GTH-PBE-q3
    &END KIND
  &END SUBSYS
&END FORCE_EVAL