@set omega 0.14
@set hfcut 4.25

&global
  project      MgO
  print_level  debug
  run_type     energy
&end global

&force_eval
  method         quickstep
  stress_tensor  analytical
  
  &subsys
    &cell
      abc                8.548054   8.548054   8.548054
      alpha_beta_gamma  90.000000  90.000000  90.000000
      periodic          xyz
    &end cell

    &topology
      coord_file_name    MgO.xyz
      coord_file_format  xyz
    &end topology
    
    &kind Mg
      basis_set  ccgrb-d-q10
      potential  gth-hyb-q10
    &end kind
    
    &kind Mg1
      basis_set  ccgrb-t-q10
      potential  gth-hyb-q10
    &end kind
    
    &kind O
      basis_set  ccgrb-d-q6
      potential  gth-hyb-q6
    &end kind
    
    &kind OX
      ghost
      element    O
      basis_set  ccgrb-t-q6
      potential  gth-hyb-q6
    &end kind
  &end subsys
  
  &dft
    multiplicity  1
    uks           false
    charge        0

    potential_file_name POTENTIAL_UZH
    basis_set_file_name BASIS_ccGRB_UZH

    &qs
      method       gpw
      eps_default  1.0e-10
    &end qs

    &xc
      &xc_functional
        &lda_x_erf
          _omega ${omega}
          scale   1.0
        &end
        &lda_c_pmgb06
          _omega ${omega}
          scale  -1.0
        &end
        &lda_c_pw
        &end
      &end xc_functional

      &hf
        fraction  1.0
        &screening
          eps_schwarz  1.0e-10
        &end screening
        &interaction_potential
          potential_type  mix_cl_trunc
          cutoff_radius   ${hfcut}
          omega           ${omega}
          scale_coulomb   0.0
        &end
        &memory
          max_memory 6000
        &end
      &end
    &end

    &poisson
      poisson_solver  periodic
      periodic        xyz
    &end

    &mgrid
      cutoff      1000
      rel_cutoff  50
    &end mgrid

    &scf 
      scf_guess  atomic
      eps_scf    1.0e-6
      max_scf    100
      added_mos  10
    &end scf
 
    &print
      &mo_cubes
        nhomo 1
        nlumo 1
      &end
      &mo
        energies  true
        occnums   true
        &each
          qs_scf 1
        &end
      &end
      &pdos
        nlumo  10
      &end
    &end

    &active_space
      active_electrons   2
      active_orbitals    5
      scf_embedding      true
      eps_iter           1e-8
      as_solver          qiskit
      orbital_selection  manual
      active_orbital_indices  253 254 255 256 257
      &eri
        method       full_gpw
        periodicity  1 1 1
        operator     <erf(a*r)/r>
        operator_parameter  ${omega}
      &end eri
      &eri_gpw
        cutoff      1000
        rel_cutoff  50
      &end eri_gpw
      &fcidump on
      &end fcidump
    &end active_space
  &end dft

  &print
    &forces on
    &end
    &stress_tensor on
    &end
    &program_run_info on
    &end
  &end print
&end force_eval