&global
  project      MgO
  print_level  medium
  run_type     geo_opt
&end global

&force_eval
  method         quickstep
  stress_tensor  analytical
  
  &subsys
    &cell
      abc                8.548054   8.548054   8.548054
      alpha_beta_gamma  90.000000  90.000000  90.000000
      periodic          xyz
    &end cell

    &topology
      coord_file_name    MgO.xyz
      coord_file_format  xyz
    &end topology
    
    &kind Mg
      basis_set  ccgrb-t-q10
      potential  gth-pbe-q10
    &end kind
    
    &kind O
      basis_set  ccgrb-t-q6
      potential  gth-pbe-q6
    &end kind
  &end subsys
  
  &dft
    multiplicity  1
    uks           false
    charge        0

    restart_file_name   MgO-RESTART.wfn

    potential_file_name POTENTIAL_UZH
    basis_set_file_name BASIS_ccGRB_UZH

    &qs
      method       gpw
      eps_default  1.0e-12
    &end qs

    &xc
      &xc_functional pbe
      &end
    &end

    &poisson
      poisson_solver  periodic
      periodic        xyz
    &end

    &mgrid
      cutoff      1000
      rel_cutoff  50
    &end mgrid

    &scf 
      scf_guess  restart
      eps_scf    1.0e-5
      max_scf    100
      added_mos  20

      &outer_scf
        max_scf  20
      &end

      !&mixing
      !  method    broyden_mixing
      !  alpha     0.4
      !  beta      1.0
      !  nbroyden  5
      !&end mixing

      !&ot
      !  minimizer       diis
      !  preconditioner  full_all
      !  energy_gap      0.2
      !&end

      &print 
        &restart on
        &end
        &restart_history off
        &end
      &end

    &end scf
 
    &print
      &mo_molden
      &end
      &mo
    !  !  mo_range  500 520
        energies  true
        occnums   true
        &each
          qs_scf  0
        &end
      &end
      &pdos
        nlumo  10
      &end
    &end
  &end dft
&end force_eval

&motion
  &geo_opt
    optimizer cg
  &cg
    max_steep_steps  0
    !restart_limit    0.9
  &end cg
  &end
&end

