@set omega 0.14
@set hfcut 4.25

&GLOBAL
  PROJECT      MgO
  PRINT_LEVEL  MEDIUM
  RUN_TYPE     ENERGY
&END GLOBAL

&FORCE_EVAL
  METHOD         QUICKSTEP
  STRESS_TENSOR  ANALYTICAL
  
  &SUBSYS
    &CELL
      ABC                8.548054   8.548054   8.548054
      ALPHA_BETA_GAMMA  90.000000  90.000000  90.000000
      PERIODIC          XYZ
    &END CELL

    &TOPOLOGY
      COORD_FILE_NAME    MgO.xyz
      COORD_FILE_FORMAT  XYZ
    &END TOPOLOGY
    
    &KIND Mg
      BASIS_SET  DZVP-MOLOPT-SR-GTH
      POTENTIAL  GTH-PBE-q10
    &END KIND
    
    &KIND Mg1
      BASIS_SET  DZVP-MOLOPT-SR-GTH
      POTENTIAL  GTH-PBE-q10
    &END KIND
    
    &KIND O
      BASIS_SET  DZVP-MOLOPT-GTH
      POTENTIAL  GTH-PBE-q6
    &END KIND
    
    &KIND OX
      GHOST
      ELEMENT    O
      BASIS_SET  DZVP-MOLOPT-GTH
      POTENTIAL  GTH-PBE-q6
    &END KIND
  &END SUBSYS
  
  &DFT
    BASIS_SET_FILE_NAME  /opt/cp2k/data/BASIS_MOLOPT
    POTENTIAL_FILE_NAME  /opt/cp2k/data/GTH_POTENTIALS

    MULTIPLICITY  1
    UKS           FALSE
    CHARGE        0

    RESTART_FILE_NAME   MgO-RESTART.wfn

    &QS
      METHOD       GPW
      EPS_DEFAULT  1.0E-12
      EXTRAPOLATION USE_PREV_P
      EXTRAPOLATION_ORDER 3
      MIN_PAIR_LIST_RADIUS -1
    &END QS

    &XC
      &XC_FUNCTIONAL
        &LDA_X_ERF
          _OMEGA ${omega}
          SCALE   1.0
        &END
        &LDA_C_PMGB06
          _OMEGA ${omega}
          SCALE  -1.0
        &END
        &LDA_C_PW
        &END
      &END XC_FUNCTIONAL

      &HF
        FRACTION  1.0
        &SCREENING
          EPS_SCHWARZ          1.0E-10
        &END SCREENING

        &INTERACTION_POTENTIAL
          POTENTIAL_TYPE  MIX_CL_TRUNC
          CUTOFF_RADIUS   ${hfcut}
          OMEGA           ${omega}
          T_C_G_DATA      /opt/cp2k/data/t_c_g.dat
          !SCALE_COULOMB   0.0
        &END
        
        &MEMORY
          MAX_MEMORY 6000
        &END
      &END
    &END

    &POISSON
      POISSON_SOLVER  PERIODIC
      PERIODIC        XYZ
    &END

    &MGRID
      CUTOFF      400
      REL_CUTOFF  60
      NGRIDS      5
    &END MGRID

    &SCF 
      SCF_GUESS  ATOMIC   #RESTART
      EPS_SCF    1.0E-6
      MAX_SCF    100
      ADDED_MOS  10

      &DIAGONALIZATION
        ALGORITHM STANDARD
      &END DIAGONALIZATION

      &MIXING
        METHOD BROYDEN_MIXING
        ALPHA   0.4
        NBROYDEN 8
      &END MIXING

      &PRINT 
        &RESTART OFF
        &END
        &RESTART_HISTORY OFF
        &END
      &END
    &END SCF
 
    &ACTIVE_SPACE ON
      ACTIVE_ELECTRONS    2
      ACTIVE_ORBITALS     5
      SCF_EMBEDDING       TRUE
      EPS_ITER            1E-8
      AS_SOLVER           QISKIT
      ORBITAL_SELECTION   MANUAL
      ACTIVE_ORBITAL_INDICES  253 254 255 256 257
      &ERI
        METHOD            FULL_GPW
        PERIODICITY       1 1 1
        OPERATOR          <erf(a*r)/r>
        OPERATOR_PARAMETER ${omega}
      &END ERI
      &ERI_GPW
        CUTOFF            1000
        REL_CUTOFF        50
      &END ERI_GPW
      &FCIDUMP
      &END FCIDUMP
    &END ACTIVE_SPACE

    &PRINT
      &MO_CUBES
        HOMO_LIST  253 254 255 256 257
      &END
      &MO
        ENERGIES  TRUE
        OCCNUMS   TRUE
        &EACH
          QS_SCF  0
        &END
      &END
      &PDOS
        NLUMO  10
      &END
    &END PRINT
  &END DFT
  
  &PRINT
  &END PRINT
&END FORCE_EVAL