&GLOBAL
  PROJECT Al_slab
  RUN_TYPE ENERGY
&END GLOBAL
&FORCE_EVAL
  METHOD Quickstep
  &DFT
    BASIS_SET_FILE_NAME BASIS_MOLOPT
    POTENTIAL_FILE_NAME GTH_POTENTIALS
    &XC
      &XC_FUNCTIONAL PBE
      &END XC_FUNCTIONAL
      &VDW_POTENTIAL
        POTENTIAL_TYPE PAIR_POTENTIAL
        &PAIR_POTENTIAL
          TYPE DFTD3
          PARAMETER_FILE_NAME dftd3.dat
          REFERENCE_FUNCTIONAL PBE
        &END PAIR_POTENTIAL
      &END VDW_POTENTIAL
    &END XC
  &END DFT
  &SUBSYS
    &CELL
      ABC 8.0 8.0 20.0
    &END CELL
    &COORD
      Al     0.0000000000    0.0000000000    0.0000000000
      Al     2.8637069723    0.0000000000    0.0000000000
      Al     1.4318534862    2.4803039410    0.0000000000
      Al     1.4318534862    0.8267679803    2.3386838639
    &END COORD
  &END SUBSYS
&END FORCE_EVAL
